DIMENSION :10
NODE_COORD_SECTION
1 -23.81639168379617 27.170211160505772
2 5.692109656567993 67.73620894406903
3 -25.99729760723723 -29.973710468575618
4 43.4512365321489 48.529589686767736
5 -83.8704763965503 -38.506540306908164
6 29.412383143082508 2.607384013538635
7 -34.82205739489214 -21.045933535761847
8 -95.32438600485125 -66.21229760480436
9 91.54199479712705 77.27475158020229
10 -41.23290766571861 -61.425457026423324
EOF
